SECTION Graph 
Nodes 18
Edges 21
E 6 12 355991
E 6 11 554454
E 5 11 1010250
E 11 12 198463
E 11 16 4291328
E 12 13 594543
E 13 14 2759521
E 13 15 2257657
E 8 14 1034246
E 10 17 1621365
E 10 15 2577284
E 10 14 2075420
E 2 17 2577284
E 2 16 380700
E 2 15 1621365
E 3 16 33235
E 1 18 2923036
E 9 17 1598557
E 4 18 1638544
E 4 9 575528
E 7 18 107231
END 

SECTION Terminals 
Terminals 10
TP 1 6
TP 2 7
TP 3 8
TP 4 9
TP 5 10
END 
